proyfinal/src/viki/013/experimentInOfficeAgust.take6.output/45da7058-d521-488d-b811-f168c3e2adcb.als.dat
{'cnf.clauses': '118081',
 'cnf.totvars': '69608',
 'conflict literals': '15',
 'conflicts': '10',
 'decisions': '1836',
 'memused.mb': '13.92',
 'outcome': 'UNSAT',
 'propagations': '22423',
 'restarts': '1',
 'solver.msecs': 30,
 'task.msecs': 75}
