proyfinal/src/viki/013/experimentInOfficeAgust.take6.output/45da7058-d521-488d-b811-f168c3e2adcb.als.out
Reading from standard input... Use '--help' for help.
============================[ Problem Statistics ]=============================
|                                                                             |
|  Number of variables:         69608                                         |
|  Number of clauses:          118081                                         |
|  Parse time:                   0.02 s                                       |
|                                                                             |
============================[ Search Statistics ]==============================
| Conflicts |          ORIGINAL         |          LEARNT          | Progress |
|           |    Vars  Clauses Literals |    Limit  Clauses Lit/Cl |          |
===============================================================================
===============================================================================
restarts              : 1
conflicts             : 10             (323 /sec)
decisions             : 1836           (0.00 % random) (59272 /sec)
propagations          : 22423          (723883 /sec)
conflict literals     : 15             (0.00 % deleted)
Memory used           : 13.92 MB
CPU time              : 0.030976 s

UNSATISFIABLE
